cnf/Example.cnf
c FILE: H.cnf
c
p cnf 28 67
-6 -7 0
-8 -9 0
-15 -18 0
-5 -6 0
-15 -20 0
-1 -2 0
6 13 20 27 0
-22 -25 0
-23 0
-2 0
-2 -3 0
-8 -14 0
7 14 21 28 0
-1 -4 0
2 9 16 23 0
-20 -21 0
-15 -21 0
-23 -28 0
-9 -10 0
-8 0
-1 -3 0
-3 0
-10 0
-22 0
-3 -4 0
5 12 19 26 0
-4 -5 0
-15 -19 0
-8 -11 0
-22 -28 0
-22 -23 0
-22 -26 0
-9 -14 0
-25 -26 0
-27 -28 0
-22 -27 0
-22 -24 0
17 0
-2 -7 0
-13 -14 0
-8 -13 0
-16 -21 0
-8 -10 0
-11 -12 0
-1 -5 0
4 11 18 25 0
-23 -24 0
-12 -13 0
3 10 17 24 0
-10 -11 0
1 0
-8 -12 0
1 8 15 22 0
-24 -25 0
9 0
-16 -17 0
-18 -19 0
-19 -20 0
-15 0
-1 -6 0
-17 -18 0
-24 0
-15 -16 0
-26 -27 0
-15 -17 0
-1 -7 0
-16 0
