dimacs/Example.col
c FILE: H.col
c
p edge 7 12
e 0 1
e 0 2
e 0 3
e 0 4
e 0 5
e 0 6
e 1 2
e 1 6
e 2 3
e 3 4
e 4 5
e 5 6
